NAME          ClpDefau
ROWS
 N  OBJROW
 L  R_84_0
 L  R_84_1
 L  R_84_2
 L  R_84_3
 L  R_84_4
 L  R_84_5
 L  R_84_6
 L  R_84_7
 L  R_84_8
 L  R_84_9
 L  R_84_10
 L  R_84_11
 L  R_84_12
 L  R_84_13
 L  R_84_14
 L  R_84_15
COLUMNS
    x_0       OBJROW     -8.           R_84_15   23.         
    x_1       OBJROW     -12.          R_84_1    42.         
    x_1       R_84_2    66.            R_84_6    58.         
    x_1       R_84_15   97.         
    x_2       OBJROW     -11.       
    x_3       OBJROW     -47.       
    x_4       OBJROW     -22.          R_84_5    25.         
    x_4       R_84_7    74.            R_84_12   67.         
    x_4       R_84_13   35.         
    x_5       OBJROW     -95.          R_84_3    47.         
    x_5       R_84_6    15.            R_84_8    94.         
    x_5       R_84_11   21.            R_84_14   76.         
    x_5       R_84_15   32.         
    x_6       OBJROW     -86.          R_84_0    5.          
    x_6       R_84_1    79.            R_84_9    34.         
    x_7       OBJROW     -40.          R_84_1    58.         
    x_8       OBJROW     -33.          R_84_1    22.         
    x_8       R_84_2    82.            R_84_6    32.         
    x_9       OBJROW     -78.          R_84_1    5.          
    x_9       R_84_3    66.            R_84_6    24.         
    x_9       R_84_8    4.          
    x_10      OBJROW     -28.          R_84_4    54.         
    x_10      R_84_10   16.            R_84_15   88.         
    x_11      OBJROW     -78.          R_84_1    26.         
    x_11      R_84_4    58.            R_84_5    82.         
    x_11      R_84_9    37.            R_84_10   40.         
    x_11      R_84_12   97.            R_84_14   48.         
    x_12      OBJROW     -5.           R_84_3    16.         
    x_12      R_84_4    79.            R_84_9    85.         
    x_12      R_84_11   91.         
    x_13      OBJROW     -75.       
    x_14      OBJROW     -88.          R_84_0    46.         
    x_14      R_84_1    70.            R_84_2    54.         
    x_14      R_84_8    38.            R_84_13   37.         
    x_14      R_84_14   70.         
    x_15      OBJROW     -21.          R_84_5    21.         
    x_15      R_84_12   57.         
RHS
    RHS       R_84_0    207.           R_84_1    171.        
    RHS       R_84_2    185.           R_84_3    192.        
    RHS       R_84_4    163.           R_84_5    190.        
    RHS       R_84_6    177.           R_84_7    185.        
    RHS       R_84_8    176.           R_84_9    205.        
    RHS       R_84_10   206.           R_84_11   186.        
    RHS       R_84_12   205.           R_84_13   201.        
    RHS       R_84_14   190.           R_84_15   183.        
BOUNDS
 UI BOUND     x_0       100.        
 UI BOUND     x_1       100.        
 UI BOUND     x_2       100.        
 UI BOUND     x_3       100.        
 UI BOUND     x_4       100.        
 UI BOUND     x_5       100.        
 UI BOUND     x_6       100.        
 UI BOUND     x_7       100.        
 UI BOUND     x_8       100.        
 UI BOUND     x_9       100.        
 UI BOUND     x_10      100.        
 UI BOUND     x_11      100.        
 UI BOUND     x_12      100.        
 UI BOUND     x_13      100.        
 UI BOUND     x_14      100.        
 UI BOUND     x_15      100.        
ENDATA
